<number of tasks>
20

<cycle time>
1000

<order strength>
0,521


<task times>
1 188
2 254
3 523
4 118
5 203
6 144
7 228
8 147
9 77
10 253
11 84
12 589
13 62
14 33
15 227
16 32
17 508
18 250
19 235
20 247

<precedence relations>
1,4
2,5
2,6
3,5
3,6
4,8
5,7
5,8
6,12
7,10
8,9
8,11
8,12
9,14
10,13
11,15
11,17
12,15
12,16
13,18
14,19
15,20
16,19

<end>
